(set-option :produce-proofs true)
(set-logic AUFLIA)
(declare-fun x () Bool)
(declare-fun y () Bool)
(declare-fun z () Bool)
(assert (= x y))
(assert (= y y))
(assert (= y z))
(assert (not (= x z)))
(check-sat)